Instance Name : rc206
Date : 2022-07-21
Solution
Route 1 : 83 64 63 85 51 18 21 23 19 49 20 22 24 66
Route 2 : 65 99 52 57 86 75 97 87 9 10 13 17 60 55
Route 3 : 82 59 11 15 16 47 14 12 78 73 79 53 90
Route 4 : 69 98 88 2 45 5 46 8 7 6 4 3 1 100 70 68
Route 5 : 71 72 36 39 42 44 41 38 40 43 35 37 54 93 96
Route 6 : 61 81 94 67 84 76 89 48 25 77 58 74
Route 7 : 92 95 62 33 30 31 29 27 28 26 32 34 50 56 91 80
